\* Pricing_problem *\
Maximize
OBJ: - 0.25 M_0_0 - 0.5 M_0_1 - 0.75 M_0_2 - 0.25 M_1_0 - 0.75 M_1_1
 - 0.5 M_1_2 - 0.25 M_2_0 - 0.5 M_2_1 - 0.75 M_2_2 - 0.25 M_3_0 - 0.5 M_3_1
 - 0.75 M_3_2
Subject To
LESS_CAP_1_0: M_0_0 + M_1_0 + M_2_0 + M_3_0 <= 2
LESS_CAP_1_1: M_0_1 + M_1_1 + M_2_1 + M_3_1 <= 2
LESS_CAP_1_2: M_0_2 + M_1_2 + M_2_2 + M_3_2 <= 2
LESS_ONE_1_0: M_0_0 + M_0_1 + M_0_2 <= 1
LESS_ONE_1_1: M_1_0 + M_1_1 + M_1_2 <= 1
LESS_ONE_1_2: M_2_0 + M_2_1 + M_2_2 <= 1
LESS_ONE_1_3: M_3_0 + M_3_1 + M_3_2 <= 1
STAB_0_0: 2 M_0_0 + M_2_0 + M_3_0 >= 2
STAB_0_1: 2 M_0_0 + 2 M_0_1 + M_1_1 + M_2_1 + M_3_1 >= 2
STAB_0_2: 2 M_0_0 + 2 M_0_1 + 2 M_0_2 + M_1_2 + M_2_2 + M_3_2 >= 2
STAB_1_0: M_0_0 + 2 M_1_0 + M_2_0 + M_3_0 >= 2
STAB_1_1: M_0_1 + 2 M_1_0 + 2 M_1_1 + 2 M_1_2 + M_2_1 + M_3_1 >= 2
STAB_1_2: 2 M_1_0 + 2 M_1_2 >= 2
STAB_2_0: M_0_0 + 2 M_2_0 + M_3_0 >= 2
STAB_2_1: M_0_1 + M_1_1 + 2 M_2_0 + 2 M_2_1 + M_3_1 >= 2
STAB_2_2: M_0_2 + M_1_2 + 2 M_2_0 + 2 M_2_1 + 2 M_2_2 + M_3_2 >= 2
STAB_3_0: M_0_0 + M_2_0 + 2 M_3_0 >= 2
STAB_3_1: M_0_1 + M_1_1 + M_2_1 + 2 M_3_0 + 2 M_3_1 >= 2
STAB_3_2: M_0_2 + M_1_2 + M_2_2 + 2 M_3_0 + 2 M_3_1 + 2 M_3_2 >= 2
Binaries
M_0_0
M_0_1
M_0_2
M_1_0
M_1_1
M_1_2
M_2_0
M_2_1
M_2_2
M_3_0
M_3_1
M_3_2
End
